#data;
set TASKset := 1 2 3 4 5;
set SERVERset := 6 7 8;
# source #total 270
param T_supply :=
1 20,
2 40,
3 60,
4 80,
5 70;
#sink #total 270
param S_demand :=
6 80,
7 100,
8 90;
# link capacity
param: ARCS: COST_ARCS CAP_ARCS:=
1,6	10	50
1,7	10	50
1,8	10	50
2,6	10	50
2,7	10	50
2,8	10	50
3,6	10	50
3,7	10	50
3,8	10	50
4,6	10	50
4,7	10	50
4,8	10	50
5,6	10	50
5,7	10	50
5,8	10	50
;